SCIP Status        : problem creation / modification
Total Time         :       0.10
  reading          :       0.10
Original Problem   :
  Problem name     : main4.zpl
  Variables        : 9045 (9045 binary, 0 integer, 0 implicit integer, 0 continuous)
  Constraints      : 0 initial, 9245 maximal
  Objective        : minimize, 9045 non-zeros (abs.min = 0.00017, abs.max = 5700)
